c FILE			: sample.gr
c No. of vertices	: 10
c No. of directed edges	: 47
c Max. weight		: 100
c Min. weight		: 0
c A directed arc from u to v of weight w
c is represented below as ' a  u  v  w '
p sp 10 47
a 1 3 66
a 1 4 55
a 1 5 87
a 1 8 8
a 1 9 78
a 1 10 12
a 2 1 65
a 2 4 4
a 2 5 21
a 3 2 22
a 3 4 27
a 3 7 49
a 4 1 2
a 4 2 98
a 4 3 58
a 4 5 27
a 4 10 57
a 5 3 21
a 5 4 38
a 5 9 93
a 6 3 61
a 6 4 99
a 6 8 99
a 7 2 20
a 7 3 58
a 7 5 82
a 7 6 60
a 7 8 58
a 7 10 65
a 8 1 84
a 8 2 61
a 8 3 17
a 8 4 65
a 8 5 87
a 8 7 21
a 8 10 33
a 9 2 44
a 9 3 95
a 9 5 94
a 9 6 68
a 9 7 69
a 9 8 73
a 10 2 64
a 10 5 89
a 10 6 86
a 10 7 59
a 10 8 82
